1.000000 0.750000 1.000000
5
5 2 3 4 5 6 
5 7 8 9 10 11 
5 12 13 14 15 16 
5 17 18 19 20 21 
5 22 23 24 25 26 
1 1 
1 2 
1 2 
1 2 
1 2 
1 2 
1 2 
1 2 
1 2 
1 2 
1 2 
1 2 
1 2 
1 3 
1 3 
1 3 
1 3 
1 3 
1 3 
1 3 
1 3 
1 3 
1 3 
1 3 
1 3 
1 4 
1 4 
1 4 
1 4 
1 4 
1 4 
1 4 
1 4 
1 4 
1 4 
1 4 
1 4 
1 5 
1 5 
1 5 
1 5 
1 5 
1 5 
1 5 
1 5 
1 5 
1 5 
1 5 
1 5 
1 6 
1 6 
1 6 
1 6 
1 6 
1 6 
1 6 
1 6 
1 6 
1 6 
1 6 
1 6 
1 1 
1 7 
1 7 
1 7 
1 7 
1 7 
1 7 
1 7 
1 7 
1 7 
1 7 
1 7 
1 7 
1 8 
1 8 
1 8 
1 8 
1 8 
1 8 
1 8 
1 8 
1 8 
1 8 
1 8 
1 8 
1 8 
1 8 
1 8 
1 8 
1 8 
1 8 
1 8 
1 8 
1 8 
1 8 
1 8 
1 8 
1 8 
1 8 
1 8 
1 8 
1 8 
1 8 
1 8 
1 8 
1 8 
1 8 
1 8 
1 8 
1 8 
1 8 
1 8 
1 8 
1 8 
1 8 
1 9 
1 9 
1 9 
1 9 
1 9 
1 9 
1 9 
1 9 
1 9 
1 9 
1 9 
1 9 
1 9 
1 9 
1 9 
1 9 
1 9 
1 9 
1 9 
1 9 
1 9 
1 9 
1 9 
1 9 
1 9 
1 9 
1 9 
1 9 
1 9 
1 9 
1 9 
1 9 
1 9 
1 9 
1 9 
1 9 
1 9 
1 9 
1 9 
1 9 
1 9 
1 9 
1 10 
1 10 
1 10 
1 10 
1 10 
1 10 
1 10 
1 10 
1 10 
1 10 
1 10 
1 10 
1 10 
1 10 
1 10 
1 10 
1 10 
1 10 
1 10 
1 10 
1 10 
1 10 
2 10 8 
2 10 8 
1 10 
1 10 
1 10 
1 10 
2 10 8 
1 10 
2 10 8 
1 10 
1 10 
1 10 
1 10 
2 10 8 
2 10 8 
1 10 
1 10 
1 10 
1 10 
2 10 8 
1 11 
1 11 
1 11 
1 11 
1 11 
1 11 
1 11 
1 11 
1 11 
1 11 
1 11 
1 11 
1 11 
1 11 
1 11 
1 11 
1 11 
1 11 
1 11 
1 11 
1 11 
1 11 
1 11 
1 11 
1 11 
1 11 
1 11 
1 11 
1 11 
1 11 
1 11 
1 11 
1 11 
1 11 
1 11 
1 11 
1 11 
1 11 
1 11 
1 11 
1 11 
1 11 
1 12 
1 12 
1 12 
1 12 
1 12 
1 12 
1 12 
1 12 
1 12 
1 12 
1 12 
1 12 
1 12 
1 12 
1 12 
1 12 
1 12 
1 12 
2 12 9 
1 12 
3 12 5 9 
3 12 5 9 
1 12 
3 12 5 9 
3 12 5 9 
1 12 
3 12 5 9 
3 12 5 9 
3 12 5 9 
3 12 5 9 
2 12 9 
3 12 5 9 
1 13 
1 13 
1 13 
1 13 
1 13 
1 13 
1 13 
1 13 
1 13 
1 13 
1 13 
1 13 
1 13 
1 13 
1 13 
1 13 
1 13 
2 13 7 
2 13 7 
1 13 
1 13 
1 13 
1 13 
1 13 
1 13 
1 13 
1 13 
1 13 
1 13 
1 13 
1 13 
2 13 7 
1 14 
1 14 
1 14 
1 14 
1 14 
1 14 
1 14 
1 14 
1 14 
1 14 
1 14 
1 14 
1 14 
1 14 
1 14 
1 14 
1 14 
1 14 
1 14 
2 14 6 
1 14 
1 14 
1 14 
1 14 
1 14 
1 14 
1 14 
1 14 
1 14 
2 14 12 
1 14 
3 14 6 12 
1 15 
1 15 
1 15 
1 15 
1 15 
1 15 
1 15 
1 15 
1 15 
1 15 
1 15 
1 15 
1 15 
1 15 
1 15 
1 15 
1 15 
1 15 
1 15 
1 15 
1 15 
1 15 
1 15 
1 15 
1 15 
1 15 
1 15 
1 15 
1 15 
1 15 
1 15 
1 15 
1 16 
1 16 
1 16 
1 16 
1 16 
1 16 
1 16 
1 16 
1 16 
1 16 
1 16 
1 16 
1 17 
1 17 
1 17 
1 17 
1 17 
1 17 
1 17 
1 17 
1 17 
1 17 
1 17 
1 17 
1 17 
1 17 
1 17 
1 17 
1 17 
1 17 
1 17 
1 17 
1 17 
1 17 
1 18 
1 18 
1 18 
1 18 
1 18 
1 18 
1 18 
1 18 
1 18 
1 18 
1 18 
1 18 
1 18 
1 18 
1 18 
1 18 
1 18 
1 18 
1 18 
1 18 
1 18 
1 18 
1 19 
2 19 3 
1 19 
1 19 
2 19 3 
2 19 3 
2 19 3 
2 19 3 
3 19 3 17 
1 19 
1 19 
3 19 3 17 
1 20 
1 20 
1 20 
1 20 
2 20 11 
2 20 11 
1 20 
3 20 11 16 
2 20 11 
3 20 11 16 
2 20 11 
2 20 11 
2 20 11 
4 20 4 11 16 
2 20 11 
4 20 4 11 16 
4 20 4 11 16 
4 20 4 11 16 
3 20 11 16 
3 20 11 16 
2 20 11 
4 20 4 11 16 
1 21 
2 21 18 
2 21 18 
2 21 2 
3 21 2 18 
3 21 2 18 
2 21 18 
3 21 2 18 
3 21 2 18 
3 21 2 18 
3 21 2 18 
3 21 2 18 
6 21 2 18 19 3 17 
3 21 2 18 
3 21 2 18 
6 21 2 18 19 3 17 
7 21 2 15 18 19 3 17 
7 21 2 15 18 19 3 17 
6 21 2 18 19 3 17 
3 21 2 18 
6 21 2 18 19 3 17 
7 21 2 15 18 19 3 17 
1 22 
1 22 
1 22 
1 22 
1 22 
1 22 
1 22 
1 22 
1 22 
1 22 
1 22 
1 22 
1 23 
1 23 
1 23 
1 23 
1 23 
1 23 
1 23 
1 23 
1 23 
1 23 
1 23 
1 23 
1 24 
1 24 
1 24 
4 24 21 2 18 
1 24 
4 24 21 2 18 
4 24 21 2 18 
4 24 21 2 18 
4 24 21 2 18 
4 24 21 2 18 
1 24 
4 24 21 2 18 
1 25 
2 25 23 
2 25 22 
2 25 23 
2 25 23 
4 25 13 22 23 
4 25 13 22 23 
7 25 22 23 24 21 2 18 
3 25 22 23 
3 25 22 23 
3 25 22 23 
8 25 13 22 23 24 21 2 18 
1 26 
1 26 
1 26 
1 26 
3 26 10 14 
6 26 10 14 25 22 23 
1 26 
6 26 10 14 25 22 23 
9 26 10 14 20 11 16 25 22 23 
1 26 
1 26 
9 26 10 14 20 11 16 25 22 23 
1 1 
